SAT
56 -42 64 -21 6 76 -2 41 32 52 99 -29 -62 27 -37 22 -54 -17 -100 -72 -26 18 67 60 49 -55 -35 74 -85 -88 -96 -97 -80 36 -69 -45 8 47 -40 92 82 15 33 -77 -75 5 -43 -87 95 -79 -68 65 39 10 -34 -71 -57 -4 -7 12 70 -59 9 -3 -1 -31 -28 -98 -86 81 -11 -16 -84 -89 78 -38 -19 50 48 -93 -44 -30 -46 -14 53 -66 -63 91 20 -83 -61 -23 13 94 -73 -90 58 25 -51 -24 0
